c
c start with comments
c
p cnf 27 36
19 3 0
3 -11 -5 0
21 -14 -11 0
-6 24 -18 -19 0
16 -14 0
3 19 9 9 0
8 -18 -4 0
-3 21 -3 20 -15 0
-24 2 -14 -20 0
-23 -11 -12 0
13 9 0
24 12 -3 0
-14 22 14 24 13 0
-18 6 -12 0
-16 -22 0
16 -17 0
-9 -6 -10 -3 0
20 -14 5 -14 25 0
-18 -3 10 -11 0
10 -10 -24 -7 24 0
-12 19 0
5 -23 -19 0
7 19 0
21 -18 8 0
1 -16 -17 6 9 0
-16 21 -22 22 0
25 -1 16 -19 0
21 -23 0
-22 -18 -8 -11 0
-27 -6 12 4 -16 0
9 -16 4 0
2 11 5 -2 0
9 17 -13 0
-24 13 -24 17 -26 0
-2 24 -4 24 10 0
24 10 -23 19 -23 21 0